130 6845
1 127 104 43 63 68 48 25 98 110 19 27 31 17 54 4 93 21 33 18 108 8 126 114 3 83 30 59 90 125 85 66 78 121 13 67 96 14 10 102 6 91 72 49 58 53 120 60 51 55 122 23 47 40 22 37 44 42 106 38 87 12 81 103 77 94 89 113 32 36 84 119 123 111 101 82 9 57 56 65 52 75 74 99 73 92 79 95 24 29 15 116 100 35 20 46 80 118 2 50 130 34 107 70 97 7 26 88 86 69 64 124 129 61 109 76 11 5 45 16 128 105 28 115 62 112 117 71 39 41 
